50
22109

308 527
594 999
750 279
501 992
177 767
131 433
866 857
266 501
116 544
743 906
216 575
905 301
838 477
778 389
366 186
277 520
367 879
592 254
543 5
541 116
970 576
542 318
442 680
424 438
359 911
772 392
457 789
15 47
14 470
597 356
462 451
284 616
752 957
424 275
143 912
598 966
888 846
307 75
116 968
766 905
16 282
678 950
886 616
915 711
427 356
499 730
241 390
626 147
531 893
294 218
